(set-info :origin "Verification conditions for the caml program
  
  let rec bot _ = bot ()
  let fail _ = assert false
  
     let rec c10_COEFFICIENT_1129 = 0
     let rec c9_COEFFICIENT_1128 = 0
     let rec c8_COEFFICIENT_1127 = 0
     let rec c7_COEFFICIENT_1125 = 0
     let rec c6_COEFFICIENT_1124 = 0
     let rec c5_COEFFICIENT_1123 = 0
     let rec c4_COEFFICIENT_1122 = 0
     let rec c3_COEFFICIENT_1121 = 0
     let rec c2_COEFFICIENT_1120 = 0
     let rec c1_COEFFICIENT_1117 = 0
     let rec c0_COEFFICIENT_1116 = 0
  
     let compose_1030 x_DO_NOT_CARE_1433 x_DO_NOT_CARE_1434 f_EXPARAM_1133 x_DO_NOT_CARE_1431 x_DO_NOT_CARE_1432 f_1031 x_DO_NOT_CARE_1429 x_DO_NOT_CARE_1430 g_EXPARAM_1134 x_DO_NOT_CARE_1427 x_DO_NOT_CARE_1428 g_1032 set_flag_id_1234 s_id_x_1231 x_1033 =
       f_1031 set_flag_id_1234 s_id_x_1231
         (g_1032 set_flag_id_1234 s_id_x_1231 x_1033)
  
     let id_without_checking_1260 set_flag_id_1234 s_id_x_1231 x_1035 =
       let set_flag_id_1234 = true
       in
       let s_id_x_1231 = x_1035
       in
         x_1035
  
     let rec id_1034 prev_set_flag_id_1233 s_prev_id_x_1232 x_1035 =
       let u = if prev_set_flag_id_1233 then
                let u_6367 = fail ()
                in
                  bot()
               else () in
              id_without_checking_1260 prev_set_flag_id_1233 s_prev_id_x_1232
                x_1035
  
     let succ_1036 set_flag_id_1234 s_id_x_1231 x_1037 = x_1037 + 1
  
     let rec toChurch_1038 x_DO_NOT_CARE_1425 x_DO_NOT_CARE_1426 n_1039 x_DO_NOT_CARE_1423 x_DO_NOT_CARE_1424 f_EXPARAM_1119 set_flag_id_1234 s_id_x_1231 f_1040 =
       if n_1039 = 0 then
         id_1034
       else
         compose_1030 set_flag_id_1234 s_id_x_1231
           ((c2_COEFFICIENT_1120 * f_EXPARAM_1119) +
            ((c3_COEFFICIENT_1121 * n_1039) + c4_COEFFICIENT_1122))
           set_flag_id_1234 s_id_x_1231 f_1040 set_flag_id_1234 s_id_x_1231
           ((c8_COEFFICIENT_1127 * f_EXPARAM_1119) +
            ((c9_COEFFICIENT_1128 * n_1039) + c10_COEFFICIENT_1129))
           set_flag_id_1234 s_id_x_1231
           (toChurch_1038 set_flag_id_1234 s_id_x_1231 (n_1039 - 1)
             set_flag_id_1234 s_id_x_1231
             ((c5_COEFFICIENT_1123 * f_EXPARAM_1119) +
              ((c6_COEFFICIENT_1124 * n_1039) + c7_COEFFICIENT_1125))
             set_flag_id_1234 s_id_x_1231 f_1040)
  
     let main_1041 x_1043 =
       let set_flag_id_1234 = false in
       let s_id_x_1231 = 0 in
         if x_1043 >= 0 then
           let tos_1044 =
             toChurch_1038 set_flag_id_1234 s_id_x_1231 x_1043 set_flag_id_1234
               s_id_x_1231 ((c0_COEFFICIENT_1116 * x_1043) + c1_COEFFICIENT_1117)
               set_flag_id_1234 s_id_x_1231 succ_1036
           in
             ()
         else
           ()
")

(set-logic HORN)

(declare-fun |toChurch_1038$unknown:52|
  ( Int Int Int Int Int Int Int Int Int Int Int Int ) Bool
)

(declare-fun |toChurch_1038$unknown:55|
  ( Int Int Int Int Int Int Int Int Int Int Int ) Bool
)

(declare-fun |bot$unknown:2|
  ( Int Int ) Bool
)

(assert
  (forall ( (|$alpha-1:$$tmp::1| Int) (|$knormal:2| Int) )
    (=>
      ( and (|bot$unknown:2| |$knormal:2| 1) )
      (|bot$unknown:2| |$knormal:2| |$alpha-1:$$tmp::1|)
    )
  )
)
(assert
  (not (exists ( (|$cond-alpha-rename:611| Int) (|$cond-alpha-rename:612| Int) (|$cond-alpha-rename:613| Int) (|$cond-alpha-rename:878| Int) (|$cond-alpha-rename:879| Int) (|$cond-alpha-rename:891| Int) (|$cond-alpha-rename:892| Int) (|$cond-alpha-rename:893| Int) (|$cond-alpha-rename:894| Int) (|$cond-alpha-rename:895| Int) (|$cond-alpha-rename:896| Int) (|$cond-alpha-rename:897| Int) (|$cond-alpha-rename:898| Int) )
    ( and (|toChurch_1038$unknown:55| |$cond-alpha-rename:613| |$cond-alpha-rename:612| |$cond-alpha-rename:611| |$cond-alpha-rename:898| |$cond-alpha-rename:897| |$cond-alpha-rename:896| |$cond-alpha-rename:895| |$cond-alpha-rename:894| |$cond-alpha-rename:893| |$cond-alpha-rename:892| |$cond-alpha-rename:891|) (not (= 0 |$cond-alpha-rename:611|)) (= (- |$cond-alpha-rename:878| 1) 0) (not (= |$cond-alpha-rename:893| 0)) (not (= |$cond-alpha-rename:878| 0)) (= (+ (* 0 |$cond-alpha-rename:896|) (+ (* 0 |$cond-alpha-rename:893|) 0)) (+ (* 0 |$cond-alpha-rename:879|) (+ (* 0 |$cond-alpha-rename:878|) 0))) (= (+ (* 0 |$cond-alpha-rename:896|) (+ (* 0 |$cond-alpha-rename:893|) 0)) (+ (* 0 |$cond-alpha-rename:879|) (+ (* 0 |$cond-alpha-rename:878|) 0))) )
    )
  )
)
(assert
  (forall ( (|$V-reftype:70| Int) (|$V-reftype:72| Int) (|$alpha-49:x_1043| Int) (|succ_1036| Int) )
    (=>
      ( and (>= |$alpha-49:x_1043| 0) )
      (|toChurch_1038$unknown:52| (+ |$V-reftype:72| 1) |$V-reftype:72| |$V-reftype:70| |succ_1036| 0 0 (+ (* 0 |$alpha-49:x_1043|) 0) 0 0 |$alpha-49:x_1043| 0 0)
    )
  )
)
(assert
  (forall ( (|$V-reftype:93| Int) (|$V-reftype:95| Int) (|$V-reftype:96| Int) (|$alpha-31:x_DO_NOT_CARE_1425| Int) (|$alpha-32:x_DO_NOT_CARE_1426| Int) (|$alpha-33:n_1039| Int) (|$alpha-34:x_DO_NOT_CARE_1423| Int) (|$alpha-35:x_DO_NOT_CARE_1424| Int) (|$alpha-36:f_EXPARAM_1119| Int) (|$alpha-37:set_flag_id_1234| Int) (|$alpha-38:s_id_x_1231| Int) (|$alpha-39:f_1040| Int) )
    (=>
      ( and (|toChurch_1038$unknown:52| |$V-reftype:96| |$V-reftype:95| |$V-reftype:93| |$alpha-39:f_1040| |$alpha-38:s_id_x_1231| |$alpha-37:set_flag_id_1234| |$alpha-36:f_EXPARAM_1119| |$alpha-35:x_DO_NOT_CARE_1424| |$alpha-34:x_DO_NOT_CARE_1423| |$alpha-33:n_1039| |$alpha-32:x_DO_NOT_CARE_1426| |$alpha-31:x_DO_NOT_CARE_1425|) (not (= |$alpha-33:n_1039| 0)) )
      (|toChurch_1038$unknown:52| |$V-reftype:96| |$V-reftype:95| |$V-reftype:93| |$alpha-39:f_1040| |$alpha-38:s_id_x_1231| |$alpha-37:set_flag_id_1234| (+ (* 0 |$alpha-36:f_EXPARAM_1119|) (+ (* 0 |$alpha-33:n_1039|) 0)) |$alpha-38:s_id_x_1231| |$alpha-37:set_flag_id_1234| (- |$alpha-33:n_1039| 1) |$alpha-38:s_id_x_1231| |$alpha-37:set_flag_id_1234|)
    )
  )
)
(check-sat)

(get-model)

